p cnf 202 517
-11 1 0
-11 -7 0
11 -1 7 0
-12 -6 0
-12 -11 0
12 6 11 0
-13 -5 0
-13 12 0
13 5 -12 0
-14 -4 0
-14 13 0
14 4 -13 0
-15 -3 0
-15 14 0
15 3 -14 0
-16 6 0
-16 11 0
16 -6 -11 0
-17 -12 0
-17 -16 0
17 12 16 0
-18 15 0
-18 17 0
18 -15 -17 0
-19 1 0
-19 -8 0
19 -1 8 0
-20 -6 0
-20 -19 0
20 6 19 0
-21 1 0
-21 15 0
21 -1 -15 0
-22 -7 0
-22 -21 0
22 7 21 0
-23 7 0
-23 21 0
23 -7 -21 0
-24 -22 0
-24 -23 0
24 22 23 0
-25 6 0
-25 19 0
25 -6 -19 0
-26 24 0
-26 -25 0
26 -24 25 0
-27 -20 0
-27 -26 0
27 20 26 0
-28 -5 0
-28 -27 0
28 5 27 0
-29 5 0
-29 27 0
29 -5 -27 0
-30 18 0
-30 -29 0
30 -18 29 0
-31 -28 0
-31 -30 0
31 28 30 0
-32 -4 0
-32 -31 0
32 4 31 0
-33 5 0
-33 -12 0
33 -5 12 0
-34 -13 0
-34 -33 0
34 13 33 0
-35 15 0
-35 34 0
35 -15 -34 0
-36 4 0
-36 31 0
36 -4 -31 0
-37 35 0
-37 -36 0
37 -35 36 0
-38 -32 0
-38 -37 0
38 32 37 0
-39 -3 0
-39 -38 0
39 3 38 0
-40 -28 0
-40 -29 0
40 28 29 0
-41 39 0
-41 40 0
41 -39 -40 0
-42 -18 0
-42 -41 0
42 18 41 0
-43 18 0
-43 41 0
43 -18 -41 0
-44 -42 0
-44 -43 0
44 42 43 0
-45 1 0
-45 -9 0
45 -1 9 0
-46 -6 0
-46 -45 0
46 6 45 0
-47 1 0
-47 39 0
47 -1 -39 0
-48 -8 0
-48 -47 0
48 8 47 0
-49 8 0
-49 47 0
49 -8 -47 0
-50 -48 0
-50 -49 0
50 48 49 0
-51 6 0
-51 45 0
51 -6 -45 0
-52 50 0
-52 -51 0
52 -50 51 0
-53 -46 0
-53 -52 0
53 46 52 0
-54 -5 0
-54 -53 0
54 5 53 0
-55 -20 0
-55 -25 0
55 20 25 0
-56 39 0
-56 55 0
56 -39 -55 0
-57 -24 0
-57 -56 0
57 24 56 0
-58 24 0
-58 56 0
58 -24 -56 0
-59 -57 0
-59 -58 0
59 57 58 0
-60 5 0
-60 53 0
60 -5 -53 0
-61 59 0
-61 -60 0
61 -59 60 0
-62 -54 0
-62 -61 0
62 54 61 0
-63 -4 0
-63 -62 0
63 4 62 0
-64 4 0
-64 62 0
64 -4 -62 0
-65 44 0
-65 -64 0
65 -44 64 0
-66 -63 0
-66 -65 0
66 63 65 0
-67 -3 0
-67 -66 0
67 3 66 0
-68 -32 0
-68 -36 0
68 32 36 0
-69 39 0
-69 68 0
69 -39 -68 0
-70 -35 0
-70 -69 0
70 35 69 0
-71 35 0
-71 69 0
71 -35 -69 0
-72 -70 0
-72 -71 0
72 70 71 0
-73 3 0
-73 66 0
73 -3 -66 0
-74 72 0
-74 -73 0
74 -72 73 0
-75 -67 0
-75 -74 0
75 67 74 0
-76 -63 0
-76 -64 0
76 63 64 0
-77 -75 0
-77 76 0
77 75 -76 0
-78 -44 0
-78 -77 0
78 44 77 0
-79 44 0
-79 77 0
79 -44 -77 0
-80 -78 0
-80 -79 0
80 78 79 0
-81 -67 0
-81 -73 0
81 67 73 0
-82 72 0
-82 -81 0
82 -72 81 0
-83 1 0
-83 -10 0
83 -1 10 0
-84 -6 0
-84 -83 0
84 6 83 0
-85 1 0
-85 -75 0
85 -1 75 0
-86 -9 0
-86 -85 0
86 9 85 0
-87 9 0
-87 85 0
87 -9 -85 0
-88 -86 0
-88 -87 0
88 86 87 0
-89 6 0
-89 83 0
89 -6 -83 0
-90 88 0
-90 -89 0
90 -88 89 0
-91 -84 0
-91 -90 0
91 84 90 0
-92 -5 0
-92 -91 0
92 5 91 0
-93 -46 0
-93 -51 0
93 46 51 0
-94 -75 0
-94 93 0
94 75 -93 0
-95 -50 0
-95 -94 0
95 50 94 0
-96 50 0
-96 94 0
96 -50 -94 0
-97 -95 0
-97 -96 0
97 95 96 0
-98 5 0
-98 91 0
98 -5 -91 0
-99 97 0
-99 -98 0
99 -97 98 0
-100 -92 0
-100 -99 0
100 92 99 0
-101 -4 0
-101 -100 0
101 4 100 0
-102 -54 0
-102 -60 0
102 54 60 0
-103 -75 0
-103 102 0
103 75 -102 0
-104 -59 0
-104 -103 0
104 59 103 0
-105 59 0
-105 103 0
105 -59 -103 0
-106 -104 0
-106 -105 0
106 104 105 0
-107 4 0
-107 100 0
107 -4 -100 0
-108 106 0
-108 -107 0
108 -106 107 0
-109 -101 0
-109 -108 0
109 101 108 0
-110 -3 0
-110 -109 0
110 3 109 0
-111 3 0
-111 109 0
111 -3 -109 0
-112 80 0
-112 -111 0
112 -80 111 0
-113 -110 0
-113 -112 0
113 110 112 0
-114 -82 0
-114 113 0
114 82 -113 0
-115 -110 0
-115 -111 0
115 110 111 0
-116 -114 0
-116 115 0
116 114 -115 0
-117 -80 0
-117 -116 0
117 80 116 0
-118 80 0
-118 116 0
118 -80 -116 0
-119 -117 0
-119 -118 0
119 117 118 0
-120 1 0
-120 -2 0
120 -1 2 0
-121 -6 0
-121 -120 0
121 6 120 0
-122 1 0
-122 -114 0
122 -1 114 0
-123 -10 0
-123 -122 0
123 10 122 0
-124 10 0
-124 122 0
124 -10 -122 0
-125 -123 0
-125 -124 0
125 123 124 0
-126 6 0
-126 120 0
126 -6 -120 0
-127 125 0
-127 -126 0
127 -125 126 0
-128 -121 0
-128 -127 0
128 121 127 0
-129 -5 0
-129 -128 0
129 5 128 0
-130 -84 0
-130 -89 0
130 84 89 0
-131 -114 0
-131 130 0
131 114 -130 0
-132 -88 0
-132 -131 0
132 88 131 0
-133 88 0
-133 131 0
133 -88 -131 0
-134 -132 0
-134 -133 0
134 132 133 0
-135 5 0
-135 128 0
135 -5 -128 0
-136 134 0
-136 -135 0
136 -134 135 0
-137 -129 0
-137 -136 0
137 129 136 0
-138 -4 0
-138 -137 0
138 4 137 0
-139 -92 0
-139 -98 0
139 92 98 0
-140 -114 0
-140 139 0
140 114 -139 0
-141 -97 0
-141 -140 0
141 97 140 0
-142 97 0
-142 140 0
142 -97 -140 0
-143 -141 0
-143 -142 0
143 141 142 0
-144 4 0
-144 137 0
144 -4 -137 0
-145 143 0
-145 -144 0
145 -143 144 0
-146 -138 0
-146 -145 0
146 138 145 0
-147 -3 0
-147 -146 0
147 3 146 0
-148 -101 0
-148 -107 0
148 101 107 0
-149 -114 0
-149 148 0
149 114 -148 0
-150 -106 0
-150 -149 0
150 106 149 0
-151 106 0
-151 149 0
151 -106 -149 0
-152 -150 0
-152 -151 0
152 150 151 0
-153 3 0
-153 146 0
153 -3 -146 0
-154 152 0
-154 -153 0
154 -152 153 0
-155 -147 0
-155 -154 0
155 147 154 0
-156 -119 0
-156 155 0
156 119 -155 0
-157 1 0
-157 -156 0
157 -1 156 0
158 2 157 0
159 -2 -157 0
-160 -158 0
-160 -159 0
161 -1 160 0
-162 -121 0
-162 -126 0
162 121 126 0
-163 -156 0
-163 162 0
163 156 -162 0
164 125 163 0
165 -125 -163 0
-166 -164 0
-166 -165 0
-167 -6 0
-167 166 0
168 -161 167 0
169 -6 166 0
-170 -168 0
-170 -169 0
-171 -129 0
-171 -135 0
171 129 135 0
-172 -156 0
-172 171 0
172 156 -171 0
173 134 172 0
174 -134 -172 0
-175 -173 0
-175 -174 0
-176 -5 0
-176 175 0
177 170 176 0
178 -5 175 0
-179 -177 0
-179 -178 0
-180 -138 0
-180 -144 0
180 138 144 0
-181 -156 0
-181 180 0
181 156 -180 0
182 143 181 0
183 -143 -181 0
-184 -182 0
-184 -183 0
-185 -4 0
-185 184 0
186 179 185 0
187 -4 184 0
-188 -186 0
-188 -187 0
-189 -147 0
-189 -153 0
189 147 153 0
-190 -156 0
-190 189 0
190 156 -189 0
191 152 190 0
192 -152 -190 0
-193 -191 0
-193 -192 0
-194 -3 0
-194 193 0
195 188 194 0
196 -3 193 0
-197 -195 0
-197 -196 0
198 3 4 0
199 5 -198 0
200 6 -199 0
201 1 -200 0
-202 197 0
-202 -201 0
202 0
